COLUMNS

passenger_count
pickup_ID
dropoff_ID
request_time_sec
pickup_district
dropoff_district
LDuals
IDuals
vehicle_ID
pick_position
drop_position

REQUESTS_INFO
2      499       581       28769     52        189       105       105       29        1         3         
1      369       522       28754     52        52        148       148       50        1         2         
1      861       669       28766     290       280       147       147       65        1         2         
3      501       134       28754     52        9         180       180       103       1         2         
2      1248      1189      28747     129       192       102       102       131       1         2         
1      216       377       28764     178       168       180       180       209       1         2         
3      745       884       28711     290       290       182       182       212       1         2         
1      310       409       28744     127       52        137       137       230       1         2         
1      369       696       28747     52        189       130       130       253       1         3         
1      1000      824       28759     291       291       100       100       254       1         2         
1      500       532       28748     52        199       111       111       336       1         2         
1      678       678       28765     290       290       115       115       341       1         2         
1      811       859       28721     290       290       171       171       365       1         2         
2      689       718       28760     131       189       94        94        416       1         2         
1      857       897       28668     290       291       244.5     244.5     419       1         2         
1      349       599       28724     127       280       161       161       439       1         2         
1      1344      1373      28713     129       129       226       226       516       1         2         
2      175       352       28754     266       119       162       162       518       1         2         
1      510       697       28741     199       189       128       128       524       1         2         
1      527       603       28747     52        189       114       114       550       1         4         
1      527       354       28768     52        119       163       163       550       2         5         
1      924       1045      28756     290       291       112.5     112.5     580       1         3         
1      574       508       28760     189       199       136       136       594       1         2         
2      314       632       28712     119       189       186       186       599       1         2         
1      371       117       28742     52        286       188       188       620       1         3         
1      991       722       28744     290       290       130       130       648       1         3         
1      123       47        28721     54        98        176       176       649       1         2         
1      442       358       28753     168       168       149       149       659       1         2         
2      478       486       28723     52        199       172       172       662       1         2         
1      842       605       28683     290       189       211       211       680       1         3         
1      397       651       28765     168       189       89        89        686       1         2         
3      772       63        28713     290       98        184       184       690       1         2         
1      248       512       28743     266       199       132       132       707       1         3         
1      305       116       28710     299       9         178       178       734       1         3         
2      501       134       28754     52        9         175       175       748       1         3         
3      434       670       28713     52        280       191       191       797       1         2         
3      479       500       28766     52        52        168       168       827       1         2         
3      970       314       28751     290       119       152       152       848       1         2         
2      183       217       28748     178       87        151       151       853       1         2         
1      927       747       28759     290       290       149       149       863       1         2         
3      479       500       28766     52        52        168       168       934       1         2         
2      713       737       28740     131       189       134       134       984       1         2         
3      285       348       28697     299       299       161       161       987       1         2         
1      924       906       28733     290       290       147       147       998       1         2         
1      1010      649       28761     290       189       132       132       1022      1         3         
3      970       314       28751     290       119       148       148       1117      1         3         
1      795       533       28769     290       199       139       139       1147      1         2         
1      702       863       28714     290       290       158       158       1160      1         2         
1      908       1032      28735     290       84        226       226       1187      1         2         
1      373       522       28695     119       52        186       186       1238      1         2         
1      817       554       28731     290       189       191       191       1242      1         2         
1      680       842       28743     290       290       130       130       1265      1         2         
1      811       462       28742     290       189       150       150       1352      1         2         
1      873       1045      28763     291       291       93        93        1387      1         2         
3      970       669       28729     290       280       170       170       1409      1         3         
1      924       35        28751     290       98        117.5     117.5     1412      1         4         
4      1026      916       28754     291       291       141       141       1425      1         2         
1      284       208       28732     299       286       138       138       1447      1         2         
3      793       1372      28748     290       129       189       189       1451      1         3         
1      364       285       28754     299       299       182       182       1472      1         2         
1      475       525       28770     52        52        0         0         0         0         0         
1      745       557       28770     290       189       0         0         0         0         0         
1      463       409       28770     168       52        0         0         0         0         0         
1      510       529       28770     199       189       0         0         0         0         0         
2      213       581       28771     266       189       0         0         0         0         0         
1      621       672       28771     280       189       0         0         0         0         0         
1      487       527       28771     199       52        0         0         0         0         0         
3      1131      646       28771     291       280       0         0         0         0         0         
3      1131      646       28771     291       280       0         0         0         0         0         
1      864       862       28772     290       290       0         0         0         0         0         
1      189       309       28772     286       127       0         0         0         0         0         
1      816       627       28772     290       189       0         0         0         0         0         
1      579       673       28772     189       189       0         0         0         0         0         
1      791       134       28772     290       9         0         0         0         0         0         
1      48        337       28772     98        277       0         0         0         0         0         
1      388       671       28772     299       280       0         0         0         0         0         
2      173       499       28772     286       52        0         0         0         0         0         
3      173       499       28772     286       52        0         0         0         0         0         
3      723       1032      28773     290       84        0         0         0         0         0         
2      991       662       28773     290       131       0         0         0         0         0         
1      772       1011      28773     290       84        0         0         0         0         0         
2      972       581       28773     290       189       0         0         0         0         0         
2      723       1032      28773     290       84        0         0         0         0         0         
2      530       946       28774     189       290       0         0         0         0         0         
2      662       859       28774     131       290       0         0         0         0         0         
1      579       1033      28774     189       84        0         0         0         0         0         
3      276       399       28774     87        168       0         0         0         0         0         
1      232       721       28774     266       290       0         0         0         0         0         
1      310       499       28775     127       52        0         0         0         0         0         
3      1045      962       28775     291       291       0         0         0         0         0         
3      1045      962       28775     291       291       0         0         0         0         0         
1      893       893       28775     291       291       0         0         0         0         0         
1      739       416       28775     189       100       0         0         0         0         0         
1      118       416       28775     286       100       0         0         0         0         0         
3      668       507       28776     280       189       0         0         0         0         0         
2      668       507       28776     280       189       0         0         0         0         0         
1      396       466       28776     119       199       0         0         0         0         0         
1      218       350       28776     87        127       0         0         0         0         0         
1      633       718       28776     189       189       0         0         0         0         0         
1      603       676       28776     189       189       0         0         0         0         0         
1      1053      621       28776     84        280       0         0         0         0         0         
1      1434      695       28776     129       189       0         0         0         0         0         
1      416       780       28776     100       291       0         0         0         0         0         
1      285       604       28777     299       189       0         0         0         0         0         
1      608       747       28777     189       290       0         0         0         0         0         
1      195       275       28777     207       87        0         0         0         0         0         
1      373       358       28777     119       168       0         0         0         0         0         
1      600       665       28778     280       131       0         0         0         0         0         
1      663       694       28778     131       189       0         0         0         0         0         
1      212       119       28778     266       286       0         0         0         0         0         
1      744       747       28778     290       290       0         0         0         0         0         
1      436       1225      28778     100       192       0         0         0         0         0         
2      133       720       28778     9         290       0         0         0         0         0         
1      980       1086      28778     291       291       0         0         0         0         0         
1      532       692       28779     199       280       0         0         0         0         0         
4      718       627       28779     189       189       0         0         0         0         0         
1      325       627       28779     299       189       0         0         0         0         0         
2      713       599       28779     131       280       0         0         0         0         0         
1      48        570       28780     98        52        0         0         0         0         0         
1      308       232       28780     127       266       0         0         0         0         0         
1      924       1377      28780     290       129       0         0         0         0         0         
1      549       717       28780     52        189       0         0         0         0         0         
3      328       534       28780     299       199       0         0         0         0         0         
1      547       549       28780     52        52        0         0         0         0         0         
1      694       557       28780     189       189       0         0         0         0         0         
1      621       697       28780     280       189       0         0         0         0         0         
1      760       871       28781     291       291       0         0         0         0         0         
1      791       557       28781     290       189       0         0         0         0         0         
1      609       646       28782     189       280       0         0         0         0         0         
3      489       651       28782     199       189       0         0         0         0         0         
3      1026      1065      28782     291       291       0         0         0         0         0         
3      1026      1065      28782     291       291       0         0         0         0         0         
3      489       651       28782     199       189       0         0         0         0         0         
2      679       738       28782     290       189       0         0         0         0         0         
3      1446      850       28782     129       291       0         0         0         0         0         
1      189       116       28783     286       9         0         0         0         0         0         
1      462       556       28783     189       199       0         0         0         0         0         
1      1022      968       28783     291       290       0         0         0         0         0         
1      722       416       28783     290       100       0         0         0         0         0         
1      599       415       28783     280       100       0         0         0         0         0         
1      143       374       28784     54        119       0         0         0         0         0         
2      646       556       28784     280       199       0         0         0         0         0         
3      646       556       28784     280       199       0         0         0         0         0         
1      148       356       28784     178       119       0         0         0         0         0         
1      1142      1055      28785     84        84        0         0         0         0         0         
1      460       499       28785     189       52        0         0         0         0         0         
1      618       739       28785     131       189       0         0         0         0         0         
1      621       603       28785     280       189       0         0         0         0         0         
1      417       791       28785     100       290       0         0         0         0         0         
3      138       1174      28785     57        129       0         0         0         0         0         
1      747       599       28785     290       280       0         0         0         0         0         
2      791       969       28786     290       290       0         0         0         0         0         
1      925       946       28786     290       290       0         0         0         0         0         
1      913       1530      28786     291       296       0         0         0         0         0         
1      824       772       28786     291       290       0         0         0         0         0         
3      894       960       28786     291       291       0         0         0         0         0         
1      772       604       28786     290       189       0         0         0         0         0         
1      950       430       28786     290       52        0         0         0         0         0         
3      758       548       28787     131       52        0         0         0         0         0         
3      758       548       28787     131       52        0         0         0         0         0         
1      758       578       28787     131       189       0         0         0         0         0         
1      860       894       28787     290       291       0         0         0         0         0         
2      973       184       28789     84        87        0         0         0         0         0         
1      1321      1109      28789     129       291       0         0         0         0         0         
1      464       655       28789     168       189       0         0         0         0         0         
3      743       652       28789     290       189       0         0         0         0         0         
2      743       652       28789     290       189       0         0         0         0         0         
1      835       378       28790     290       168       0         0         0         0         0         
3      992       670       28790     290       280       0         0         0         0         0         
1      1058      1055      28790     84        84        0         0         0         0         0         
1      778       275       28791     131       87        0         0         0         0         0         
3      793       652       28791     290       189       0         0         0         0         0         
3      793       652       28791     290       189       0         0         0         0         0         
1      524       308       28791     52        127       0         0         0         0         0         
1      551       673       28791     189       189       0         0         0         0         0         
1      608       863       28791     189       290       0         0         0         0         0         
1      522       526       28792     52        52        0         0         0         0         0         
3      443       651       28792     168       189       0         0         0         0         0         
1      865       969       28792     290       290       0         0         0         0         0         
1      725       582       28792     290       189       0         0         0         0         0         
1      48        116       28792     98        9         0         0         0         0         0         
2      443       651       28792     168       189       0         0         0         0         0         
1      552       1057      28792     189       84        0         0         0         0         0         
2      527       353       28792     52        119       0         0         0         0         0         
2      604       623       28792     189       280       0         0         0         0         0         
1      47        64        28792     98        98        0         0         0         0         0         
1      146       123       28792     178       54        0         0         0         0         0         
1      189       304       28793     286       299       0         0         0         0         0         
1      666       387       28793     131       299       0         0         0         0         0         
1      505       556       28793     52        199       0         0         0         0         0         
1      652       580       28793     189       189       0         0         0         0         0         
2      296       581       28793     277       189       0         0         0         0         0         
3      296       581       28793     277       189       0         0         0         0         0         
1      548       484       28794     52        189       0         0         0         0         0         
2      583       734       28794     189       131       0         0         0         0         0         
1      1002      1129      28794     291       291       0         0         0         0         0         
1      1149      937       28794     291       291       0         0         0         0         0         
1      434       411       28795     52        52        0         0         0         0         0         
2      438       552       28795     100       189       0         0         0         0         0         
1      510       629       28795     199       189       0         0         0         0         0         
1      771       905       28795     290       290       0         0         0         0         0         
2      948       904       28795     290       290       0         0         0         0         0         
1      1025      721       28795     291       290       0         0         0         0         0         
1      782       725       28795     291       290       0         0         0         0         0         
2      295       531       28795     87        189       0         0         0         0         0         
3      295       531       28795     87        189       0         0         0         0         0         
1      390       430       28795     52        52        0         0         0         0         0         
3      189       390       28796     286       52        0         0         0         0         0         
3      189       390       28796     286       52        0         0         0         0         0         
1      436       544       28796     100       52        0         0         0         0         0         
1      43        652       28796     9         189       0         0         0         0         0         
2      991       743       28796     290       290       0         0         0         0         0         
1      499       78        28796     52        9         0         0         0         0         0         
1      792       630       28796     290       189       0         0         0         0         0         
1      189       651       28796     286       189       0         0         0         0         0         
1      252       304       28796     206       299       0         0         0         0         0         
1      959       486       28796     291       199       0         0         0         0         0         
1      372       604       28796     119       189       0         0         0         0         0         
1      739       739       28797     189       189       0         0         0         0         0         
1      781       670       28797     291       280       0         0         0         0         0         
1      749       882       28797     290       290       0         0         0         0         0         
1      618       670       28797     131       280       0         0         0         0         0         
1      527       603       28797     52        189       0         0         0         0         0         
2      760       720       28798     291       290       0         0         0         0         0         
1      600       650       28798     280       189       0         0         0         0         0         
1      78        270       28798     9         127       0         0         0         0         0         
3      745       837       28798     290       290       0         0         0         0         0         
1      745       521       28798     290       52        0         0         0         0         0         
1      134       718       28799     9         189       0         0         0         0         0         
1      905       811       28799     290       290       0         0         0         0         0         
1      864       116       28799     290       9         0         0         0         0         0         
